40
2 0 6
2 1 6
3 1 1
4 0 2
4 1 7
4 2 9
4 3 3
5 0 1
5 1 10
5 2 9
6 5 7
7 0 2
7 3 6
7 4 10
8 0 9
8 1 1
8 2 4
8 3 7
8 4 9
8 6 8
9 2 4
9 5 3
9 7 5
9 8 1
10 0 4
10 1 10
10 3 5
10 5 9
10 6 10
10 8 6
11 0 3
11 1 3
11 3 9
11 5 1
11 6 5
11 8 10
12 0 2
12 4 2
12 6 4
12 8 10
12 9 9
12 10 5
13 0 7
13 3 5
13 5 7
13 6 4
14 2 7
14 3 6
14 4 1
14 5 5
14 6 4
14 7 5
14 12 6
14 13 10
15 0 2
15 5 7
15 6 8
15 7 3
15 9 3
15 12 6
15 14 10
16 0 5
16 1 1
16 3 9
16 5 5
16 9 5
16 10 1
16 13 9
16 14 8
16 15 8
17 0 7
17 1 6
17 3 3
17 4 9
17 5 4
17 7 9
17 9 2
17 10 5
17 11 10
17 13 9
18 3 7
18 5 1
18 7 10
18 9 3
18 11 10
18 13 10
18 14 8
18 17 10
19 0 5
19 1 5
19 3 10
19 6 3
19 8 4
19 9 7
19 14 6
19 17 1
19 18 8
20 0 6
20 1 7
20 8 10
20 11 9
20 12 7
20 14 1
20 16 9
20 18 7
21 0 8
21 2 8
21 3 2
21 5 2
21 7 6
21 12 6
21 15 10
21 16 5
21 17 10
21 19 10
21 20 7
22 0 2
22 1 10
22 4 8
22 10 1
22 13 6
22 15 2
22 16 10
22 18 1
22 19 4
22 20 2
23 2 6
23 6 4
23 11 7
23 12 4
23 13 1
23 16 5
23 17 10
24 0 7
24 3 8
24 4 10
24 5 10
24 6 10
24 7 2
24 8 4
24 9 2
24 13 10
24 16 2
24 17 2
24 18 8
24 19 6
24 20 10
25 0 5
25 1 5
25 3 10
25 6 8
25 13 9
25 15 8
25 16 5
25 21 3
25 23 10
25 24 6
26 2 1
26 3 6
26 4 3
26 5 7
26 6 2
26 8 5
26 12 2
26 13 4
26 14 10
26 16 5
26 18 7
26 19 6
26 21 8
26 22 8
26 24 1
27 1 7
27 2 3
27 7 3
27 9 1
27 10 5
27 11 9
27 12 5
27 13 7
27 14 10
27 15 1
27 16 7
27 17 7
27 21 2
27 24 10
27 25 5
27 26 1
28 0 7
28 2 3
28 4 10
28 5 6
28 7 3
28 8 8
28 11 2
28 12 7
28 16 3
28 17 3
28 18 7
28 20 6
28 21 2
28 25 4
29 1 2
29 2 7
29 3 7
29 4 10
29 6 2
29 8 8
29 9 7
29 10 4
29 11 6
29 12 6
29 13 3
29 14 10
29 15 4
29 23 4
29 26 10
29 27 5
30 1 6
30 2 3
30 3 2
30 4 8
30 5 8
30 6 7
30 10 2
30 11 2
30 12 8
30 13 1
30 14 7
30 15 2
30 16 7
30 19 5
30 20 3
30 21 7
30 22 1
30 23 3
30 27 2
30 29 6
31 5 5
31 7 4
31 9 2
31 10 6
31 14 7
31 16 9
31 17 3
31 19 3
31 21 3
31 22 7
31 25 8
31 27 8
31 29 4
32 0 10
32 1 3
32 2 6
32 3 9
32 5 10
32 8 5
32 11 7
32 13 3
32 15 9
32 16 10
32 18 10
32 20 1
32 24 6
32 26 5
32 28 6
32 30 3
32 31 5
33 0 10
33 1 9
33 2 10
33 7 5
33 8 2
33 11 5
33 13 5
33 15 8
33 19 3
33 21 7
33 22 2
33 26 6
33 27 8
33 29 7
33 30 8
34 2 4
34 3 3
34 5 9
34 7 5
34 8 10
34 11 9
34 12 6
34 13 6
34 15 10
34 17 6
34 19 10
34 21 8
34 22 8
34 28 1
34 30 3
34 33 8
35 2 4
35 3 5
35 4 1
35 5 9
35 7 4
35 13 8
35 16 2
35 17 5
35 21 4
35 24 1
35 26 5
35 27 1
35 29 1
35 31 9
35 32 9
35 33 10
35 34 10
36 1 10
36 2 9
36 4 5
36 8 2
36 9 3
36 10 6
36 11 7
36 15 7
36 17 8
36 19 4
36 20 7
36 21 2
36 22 4
36 24 1
36 25 7
36 28 6
36 33 10
36 35 9
37 2 6
37 4 5
37 10 4
37 11 8
37 12 8
37 14 6
37 15 8
37 16 9
37 20 2
37 22 5
37 24 8
37 27 6
37 28 3
37 30 5
37 31 5
37 34 4
37 36 6
38 0 7
38 1 8
38 2 4
38 5 7
38 6 7
38 9 2
38 10 2
38 11 10
38 15 2
38 16 3
38 17 3
38 27 2
38 28 2
38 29 9
38 32 4
38 33 6
38 37 8
39 0 3
39 2 9
39 3 7
39 5 3
39 6 9
39 7 1
39 8 8
39 10 9
39 12 10
39 13 1
39 14 5
39 16 1
39 20 6
39 21 4
39 22 10
39 23 10
39 24 6
39 28 1
39 29 10
39 30 3
39 33 5
39 36 5
39 37 10
